students = 100;
supervisors = 20;

timeslots = 8;
sessions = 3;

max_students_per_session = 6;
max_students_per_supervisor = 7;
min_supervisors_per_session = 2;
max_supervisors_per_session = 6;


availability=[|
false, true, false, true, false, true, false, true|
true, true, true, true, true, true, true, true|
true, true, true, true, true, true, true, true|
true, true, true, true, true, true, true, true|
true, true, true, true, true, true, true, true|
true, true, true, true, true, true, true, true|
true, true, true, true, true, true, true, true|
true, true, true, true, true, true, true, true|
true, true, true, true, true, true, true, true|
true, true, true, true, true, true, true, true|
true, true, true, true, true, true, true, true|
true, true, true, true, true, true, true, true|
true, true, true, true, true, true, true, true|
true, true, true, true, true, true, true, true|
true, true, true, true, true, true, true, true|
true, true, true, true, true, true, true, true|
true, true, true, true, true, true, true, true|
true, true, true, true, true, true, true, true|
true, true, true, true, true, true, true, true|
true, true, true, true, true, true, true, true|];